n = 25;
edge = [| 7, 1 
| 8, 1 
| 10, 1 
| 15, 1 
| 21, 1 
| 25, 1 
| 5, 2 
| 7, 2 
| 14, 2 
| 6, 3 
| 7, 3 
| 8, 3 
| 11, 3 
| 21, 3 
| 3, 4 
| 7, 4 
| 14, 4 
| 19, 4 
| 22, 4 
| 19, 5 
| 21, 5 
| 1, 6 
| 5, 6 
| 19, 6 
| 2, 7 
| 4, 7 
| 6, 7 
| 10, 7 
| 11, 7 
| 16, 7 
| 20, 7 
| 1, 8 
| 3, 8 
| 11, 8 
| 16, 8 
| 25, 8 
| 6, 9 
| 10, 9 
| 21, 9 
| 3, 10 
| 11, 10 
| 1, 11 
| 4, 11 
| 7, 11 
| 10, 11 
| 16, 11 
| 23, 11 
| 4, 12 
| 5, 12 
| 6, 12 
| 23, 12 
| 2, 13 
| 4, 13 
| 6, 13 
| 9, 13 
| 12, 13 
| 19, 13 
| 23, 13 
| 2, 14 
| 13, 14 
| 21, 14 
| 23, 14 
| 5, 15 
| 6, 15 
| 9, 15 
| 13, 15 
| 19, 15 
| 22, 15 
| 24, 15 
| 1, 16 
| 6, 16 
| 8, 16 
| 15, 16 
| 21, 16 
| 23, 16 
| 24, 16 
| 15, 17 
| 19, 17 
| 3, 18 
| 13, 18 
| 22, 18 
| 25, 18 
| 7, 19 
| 25, 19 
| 4, 20 
| 5, 20 
| 7, 20 
| 18, 20 
| 25, 20 
| 1, 21 
| 6, 21 
| 8, 21 
| 9, 21 
| 11, 21 
| 14, 21 
| 18, 21 
| 7, 22 
| 9, 22 
| 11, 22 
| 14, 22 
| 20, 22 
| 24, 22 
| 6, 23 
| 9, 23 
| 10, 23 
| 15, 23 
| 20, 23 
| 1, 24 
| 11, 24 
| 15, 24 
| 5, 25 
| 12, 25 
|];

